
(set-logic ALL) 

(declare-datatype MyList ((Nil) (Cons (head Real) (tail MyList)) )) 
(declare-fun l0 () MyList) 
(declare-fun l1 () MyList) 
(declare-fun l2 () MyList) 
(declare-fun l3 () MyList) 
(declare-fun i0 () Real) 
(declare-fun i1 () Real) 
(assert (or (= l3 l2) (is-Cons l3) (= l3 l1)) )
(assert (not (= l1 l1)) )
(assert (= l2 Nil) )
(assert (is-Nil l0) )
(assert (and (= l0 Nil) (is-Cons Nil)) )
(assert (and (= l1 Nil) (= l1 Nil) (= l0 Nil)) )
(assert (is-Nil Nil) )
(assert (and (= l3 Nil) (= l3 Nil) (is-Nil Nil) (= l3 l0)) )
(check-sat)
